c
c start with comments
c
p cnf 55 44
-59 16 -59 -31 0
58 34 0
-45 -44 0
30 23 49 -28 0
47 35 0
-41 42 -13 0
33 39 0
38 45 0
51 -36 0
-42 -10 0
-17 -20 -46 32 0
-39 -17 -26 0
17 12 30 0
-48 -55 0
-58 -27 0
-49 -29 0
-26 57 50 20 0
50 -59 3 52 0
27 17 44 14 0
-2 -21 0
-51 6 0
60 -37 0
-12 29 0
-18 8 0
-15 9 56 0
21 -8 0
-23 -15 5 -4 31 0
-50 -33 -38 0
4 41 0
-17 -35 -11 37 0
-39 22 -43 9 -39 0
-60 -34 2 0
22 16 28 0
-22 -53 0
18 18 24 24 0
-40 -47 0
44 -28 48 0
-43 23 -43 -17 0
-20 50 -9 0
-50 -39 -30 -32 31 0
52 11 42 0
48 -13 -24 -24 -23 0
40 26 0
-16 13 0